38762 40477 
36691 40851 
38973 40457 
38106 40665 
38073 40693 
37132 40840 
38633 40478 
38600 40506 
40123 39762 
38497 40580 
37238 40806 
37770 40724 
38464 40608 
38219 40635 
37580 40785 
37909 40704 
37416 40796 
37971 40700 
39609 40060 
38399 40634 
37807 40711 
39311 40260 
